Traveling Salesman Problem/TSP_generados/Aleatorio1621103663_17.tsp
NAME: Aleatorio1621103663_17.tsp
COMMENT: Randomly generated scenario
TYPE: TSP
DIMENSION: 17
EDGE_WEIGHT_TYPE: ATT
NODE_COORD_SECTION
1 8.99 37.26
2 17.83 38.75
3 4.73 18.82
4 16.91 3.57
5 26.27 17.83
6 23.52 2.4
7 17.16 29.45
8 41.04 38.55
9 39.12 11.63
10 26.47 19.08
11 42.12 24.73
12 30.57 45.24
13 41.91 5.55
14 17.68 44.12
15 11.34 6.13
16 39.92 24.19
17 29.0 39.34
