Traveling Salesman Problem/TSP_generados/Aleatorio1621103663_17.opt.tour
NAME: Aleatorio1621103663_17.opt.tour
COMMENT: Optimal solution for Aleatorio1621103663_17 (171.36019452296424)
TYPE: TOUR
DIMENSION: 17
TOUR_SECTION
1 7 3 15 4 6 13 9 5 10 16 11 8 12 17 14 2
-1
EOF
